c PMC file for PBN EPFL/random_control/dec_distill_EPFL/random_control/dec_miter written by probABC
p cnf 360 174
c ind 1 2 3 4 5 6 7 8 345 346 347 348 349 350 351 352 353 354 355 356 0
17 1 3 0
-17 -1 0
-17 -3 0
18 2 4 0
-18 -2 0
-18 -4 0
24 -2 4 0
-24 2 0
-24 -4 0
25 -17 -24 0
-25 17 0
-25 24 0
29 1 -3 0
-29 -1 0
-29 3 0
30 -18 -29 0
-30 18 0
-30 29 0
32 -1 -3 0
-32 1 0
-32 3 0
39 2 -4 0
-39 -2 0
-39 4 0
44 -2 -4 0
-44 2 0
-44 4 0
45 -17 -44 0
-45 17 0
-45 44 0
51 -32 -39 0
-51 32 0
-51 39 0
57 -5 6 0
-57 5 0
-57 -6 0
93 -5 -6 0
-93 5 0
-93 6 0
111 -7 -8 0
-111 7 0
-111 8 0
163 -93 -111 0
-163 93 0
-163 111 0
168 -30 -163 0
-168 30 0
-168 163 0
169 -9 168 0
-169 9 0
-169 -168 0
170 9 -168 0
-170 -9 0
-170 168 0
171 169 170 0
-171 -169 0
-171 -170 0
252 -7 8 0
-252 7 0
-252 -8 0
270 -57 -252 0
-270 57 0
-270 252 0
281 -45 -270 0
-281 45 0
-281 270 0
282 -10 281 0
-282 10 0
-282 -281 0
283 10 -281 0
-283 -10 0
-283 281 0
284 282 283 0
-284 -282 0
-284 -283 0
287 -51 -270 0
-287 51 0
-287 270 0
288 -11 287 0
-288 11 0
-288 -287 0
289 11 -287 0
-289 -11 0
-289 287 0
290 288 289 0
-290 -288 0
-290 -289 0
310 -93 -252 0
-310 93 0
-310 252 0
313 -25 -310 0
-313 25 0
-313 310 0
314 -12 313 0
-314 12 0
-314 -313 0
315 12 -313 0
-315 -12 0
-315 313 0
316 314 315 0
-316 -314 0
-316 -315 0
330 -168 -171 0
-330 168 0
-330 171 0
331 168 171 0
-331 -168 0
-331 -171 0
332 330 331 0
-332 -330 0
-332 -331 0
333 -281 -284 0
-333 281 0
-333 284 0
334 281 284 0
-334 -281 0
-334 -284 0
335 333 334 0
-335 -333 0
-335 -334 0
336 -287 -290 0
-336 287 0
-336 290 0
337 287 290 0
-337 -287 0
-337 -290 0
338 336 337 0
-338 -336 0
-338 -337 0
339 -313 -316 0
-339 313 0
-339 316 0
340 313 316 0
-340 -313 0
-340 -316 0
341 339 340 0
-341 -339 0
-341 -340 0
342 -335 -338 0
-342 335 0
-342 338 0
343 -341 -342 0
-343 341 0
-343 342 0
344 -332 -343 0
-344 332 0
-344 343 0
13 344 0
-13 -344 0
13 0
9 -345 -357 0
-9 345 0
-9 357 0
357 -346 -347 0
-357 346 0
-357 347 0
10 -348 -358 0
-10 348 0
-10 358 0
358 -349 -350 0
-358 349 0
-358 350 0
11 -351 -359 0
-11 351 0
-11 359 0
359 -352 -353 0
-359 352 0
-359 353 0
12 -354 -360 0
-12 354 0
-12 360 0
360 -355 -356 0
-360 355 0
-360 356 0
